single_objective/SL-DABL/OP/problems/op/OPLib-master/solutions/ea4op/gen1/pr144-gen1-50.sol
NAME : pr144
TYPE : OP
DIMENSION : 144
COST_LIMIT : 29269
ROUTE_NODES : 77
ROUTE_SCORE : 77
ROUTE_COST : 28762
NODE_SEQUENCE_SECTION
1
2
28
29
30
27
26
25
24
36
35
49
50
51
52
53
54
55
56
57
58
79
80
81
82
83
84
85
86
110
109
108
107
106
105
104
87
88
103
102
101
100
99
96
95
93
94
97
98
90
89
78
77
76
75
74
73
70
69
68
67
66
65
64
63
62
61
40
39
38
37
23
22
6
5
4
3
-1
DEPOT_SECTION
1
-1
EOF
